          12
 
C    17.4794   17.9113   15.3195    0.0682    0.0029    0.0062
C    17.8186   19.2825   15.3560    0.0228    0.0229    0.0022
C    19.1706   19.6725   15.4856    0.0008    0.0696    0.0005
C    20.1831   18.6912   15.5788   -0.0684   -0.0022   -0.0067
C    19.8437   17.3199   15.5424   -0.0231   -0.0223   -0.0022
C    18.4918   16.9300   15.4128   -0.0009   -0.0692   -0.0002
H    20.6378   16.5505   15.6155    0.0346    0.0378    0.0034
H    18.2255   15.8548   15.3843   -0.0400   -0.0593   -0.0041
H    19.4369   20.7477   15.5141    0.0397    0.0598    0.0047
H    21.2433   18.9970   15.6804   -0.0568   -0.0424   -0.0054
H    16.4192   17.6054   15.2178    0.0566    0.0437    0.0042
H    17.0246   20.0519   15.2828   -0.0350   -0.0373   -0.0033
 #Energy    586.529063616380     
