          12
 
C    17.4794   17.9113   15.3195   -0.0017   -0.0000    0.0172
C    17.8186   19.2825   15.3560   -0.0017   -0.0000    0.0171
C    19.1706   19.6725   15.4856   -0.0018   -0.0001    0.0173
C    20.1831   18.6912   15.5788   -0.0017   -0.0001    0.0174
C    19.8437   17.3199   15.5424   -0.0017   -0.0001    0.0174
C    18.4918   16.9300   15.4128   -0.0017   -0.0000    0.0170
H    20.6378   16.5505   15.6155    0.0197    0.0007   -0.2058
H    18.2255   15.8548   15.3843    0.0194    0.0006   -0.2056
H    19.4369   20.7477   15.5141    0.0195    0.0006   -0.2059
H    21.2433   18.9970   15.6804    0.0197    0.0006   -0.2068
H    16.4192   17.6054   15.2178    0.0195    0.0005   -0.2050
H    17.0246   20.0519   15.2828    0.0197    0.0009   -0.2056
 #Energy    656.992560080112     
