          12
 
C    17.4794   17.9113   15.3195   -0.0038   -0.0001    0.0401
C    17.8186   19.2825   15.3560   -0.0019   -0.0002    0.0203
C    19.1706   19.6725   15.4856    0.0019   -0.0001   -0.0199
C    20.1831   18.6912   15.5788    0.0039    0.0001   -0.0405
C    19.8437   17.3199   15.5424    0.0018    0.0002   -0.0200
C    18.4918   16.9300   15.4128   -0.0019    0.0001    0.0202
H    20.6378   16.5505   15.6155   -0.0130   -0.0005    0.1335
H    18.2255   15.8548   15.3843    0.0130    0.0005   -0.1353
H    19.4369   20.7477   15.5141   -0.0128   -0.0006    0.1332
H    21.2433   18.9970   15.6804   -0.0257   -0.0006    0.2696
H    16.4192   17.6054   15.2178    0.0256    0.0006   -0.2692
H    17.0246   20.0519   15.2828    0.0132    0.0006   -0.1356
 #Energy    819.812293726395     
