          12
 
C    17.4794   17.9113   15.3195   -0.0001   -0.0000    0.0000
C    17.8186   19.2825   15.3560    0.0033    0.0001   -0.0348
C    19.1706   19.6725   15.4856    0.0034    0.0001   -0.0349
C    20.1831   18.6912   15.5788    0.0001    0.0000   -0.0000
C    19.8437   17.3199   15.5424   -0.0033   -0.0001    0.0349
C    18.4918   16.9300   15.4128   -0.0034   -0.0001    0.0348
H    20.6378   16.5505   15.6155    0.0224    0.0009   -0.2332
H    18.2255   15.8548   15.3843    0.0222    0.0006   -0.2331
H    19.4369   20.7477   15.5141   -0.0221   -0.0007    0.2334
H    21.2433   18.9970   15.6804    0.0001   -0.0000    0.0002
H    16.4192   17.6054   15.2178   -0.0001    0.0001   -0.0002
H    17.0246   20.0519   15.2828   -0.0224   -0.0009    0.2329
 #Energy    820.091889897095     
