          12
 
C    17.4794   17.9113   15.3195   -0.0024   -0.0000    0.0270
C    17.8186   19.2825   15.3560    0.0026   -0.0000   -0.0267
C    19.1706   19.6725   15.4856   -0.0025   -0.0003    0.0260
C    20.1831   18.6912   15.5788    0.0025    0.0001   -0.0256
C    19.8437   17.3199   15.5424   -0.0027    0.0001    0.0260
C    18.4918   16.9300   15.4128    0.0025    0.0002   -0.0267
H    20.6378   16.5505   15.6155    0.0181    0.0009   -0.1922
H    18.2255   15.8548   15.3843   -0.0188   -0.0004    0.1961
H    19.4369   20.7477   15.5141    0.0182    0.0003   -0.1921
H    21.2433   18.9970   15.6804   -0.0179   -0.0006    0.1896
H    16.4192   17.6054   15.2178    0.0190    0.0006   -0.1977
H    17.0246   20.0519   15.2828   -0.0189   -0.0010    0.1958
 #Energy    954.111848310424     
