          12
 
C    17.4794   17.9113   15.3195   -0.0571   -0.0167   -0.0050
C    17.8186   19.2825   15.3560    0.0432   -0.0416    0.0036
C    19.1706   19.6725   15.4856    0.0144    0.0580    0.0017
C    20.1831   18.6912   15.5788   -0.0577   -0.0167   -0.0053
C    19.8437   17.3199   15.5424    0.0426   -0.0411    0.0037
C    18.4918   16.9300   15.4128    0.0144    0.0584    0.0015
H    20.6378   16.5505   15.6155    0.0426   -0.0405    0.0052
H    18.2255   15.8548   15.3843    0.0151    0.0579    0.0020
H    19.4369   20.7477   15.5141    0.0143    0.0577    0.0015
H    21.2433   18.9970   15.6804   -0.0574   -0.0165   -0.0070
H    16.4192   17.6054   15.2178   -0.0565   -0.0170   -0.0076
H    17.0246   20.0519   15.2828    0.0428   -0.0415    0.0058
 #Energy    969.321395914962     
