          12
 
C    17.4794   17.9113   15.3195   -0.0570   -0.0161   -0.0052
C    17.8186   19.2825   15.3560   -0.0422    0.0408   -0.0039
C    19.1706   19.6725   15.4856    0.0142    0.0579    0.0017
C    20.1831   18.6912   15.5788    0.0567    0.0166    0.0053
C    19.8437   17.3199   15.5424    0.0428   -0.0417    0.0040
C    18.4918   16.9300   15.4128   -0.0145   -0.0572   -0.0017
H    20.6378   16.5505   15.6155    0.0472   -0.0462    0.0043
H    18.2255   15.8548   15.3843   -0.0181   -0.0628   -0.0014
H    19.4369   20.7477   15.5141    0.0142    0.0644    0.0014
H    21.2433   18.9970   15.6804    0.0626    0.0182    0.0068
H    16.4192   17.6054   15.2178   -0.0630   -0.0171   -0.0069
H    17.0246   20.0519   15.2828   -0.0468    0.0450   -0.0044
 #Energy    995.564536426959     
