          12
 
C    17.4794   17.9113   15.3195    0.0355   -0.0123    0.0031
C    17.8186   19.2825   15.3560   -0.0293   -0.0113   -0.0026
C    19.1706   19.6725   15.4856    0.0045    0.0444    0.0006
C    20.1831   18.6912   15.5788    0.0355   -0.0126    0.0032
C    19.8437   17.3199   15.5424   -0.0293   -0.0112   -0.0027
C    18.4918   16.9300   15.4128    0.0043    0.0446    0.0006
H    20.6378   16.5505   15.6155   -0.1655   -0.1512   -0.0171
H    18.2255   15.8548   15.3843   -0.0359    0.0591   -0.0034
H    19.4369   20.7477   15.5141   -0.0356    0.0589   -0.0030
H    21.2433   18.9970   15.6804    0.0791   -0.1544    0.0079
H    16.4192   17.6054   15.2178    0.0787   -0.1529    0.0080
H    17.0246   20.0519   15.2828   -0.1686   -0.1545   -0.0177
 #Energy    1023.38820841477     
