          12
 
C    17.4794   17.9113   15.3195    0.0265    0.0291    0.0025
C    17.8186   19.2825   15.3560    0.0253   -0.0370    0.0023
C    19.1706   19.6725   15.4856   -0.0307   -0.0031   -0.0030
C    20.1831   18.6912   15.5788    0.0258    0.0285    0.0025
C    19.8437   17.3199   15.5424    0.0247   -0.0365    0.0023
C    18.4918   16.9300   15.4128   -0.0304   -0.0022   -0.0029
H    20.6378   16.5505   15.6155   -0.0153   -0.0843   -0.0018
H    18.2255   15.8548   15.3843   -0.2190    0.0439   -0.0208
H    19.4369   20.7477   15.5141   -0.2224    0.0438   -0.0210
H    21.2433   18.9970   15.6804   -0.0097    0.1638   -0.0003
H    16.4192   17.6054   15.2178   -0.0093    0.1662   -0.0002
H    17.0246   20.0519   15.2828   -0.0155   -0.0857   -0.0019
 #Energy    1025.11254965260     
