          12
 
C    17.4794   17.9113   15.3195    0.0043   -0.0104    0.0004
C    17.8186   19.2825   15.3560    0.0080    0.0078    0.0007
C    19.1706   19.6725   15.4856   -0.0117    0.0035   -0.0011
C    20.1831   18.6912   15.5788    0.0034   -0.0100    0.0003
C    19.8437   17.3199   15.5424    0.0065    0.0063    0.0006
C    18.4918   16.9300   15.4128   -0.0101    0.0030   -0.0009
H    20.6378   16.5505   15.6155    0.1360    0.1412    0.0137
H    18.2255   15.8548   15.3843   -0.1986    0.0501   -0.0189
H    19.4369   20.7477   15.5141   -0.2155    0.0545   -0.0204
H    21.2433   18.9970   15.6804    0.0582   -0.2008    0.0050
H    16.4192   17.6054   15.2178    0.0603   -0.2062    0.0052
H    17.0246   20.0519   15.2828    0.1528    0.1586    0.0155
 #Energy    1110.71681420788     
