          12
 
C    17.4794   17.9113   15.3195    0.0083   -0.0171    0.0007
C    17.8186   19.2825   15.3560    0.0183    0.0178    0.0017
C    19.1706   19.6725   15.4856   -0.0064    0.0061   -0.0006
C    20.1831   18.6912   15.5788   -0.0079    0.0178   -0.0007
C    19.8437   17.3199   15.5424   -0.0193   -0.0188   -0.0018
C    18.4918   16.9300   15.4128    0.0072   -0.0057    0.0007
H    20.6378   16.5505   15.6155   -0.2018   -0.2089   -0.0203
H    18.2255   15.8548   15.3843    0.0842   -0.0244    0.0080
H    19.4369   20.7477   15.5141   -0.0699    0.0214   -0.0066
H    21.2433   18.9970   15.6804   -0.0586    0.1962   -0.0050
H    16.4192   17.6054   15.2178    0.0550   -0.1818    0.0047
H    17.0246   20.0519   15.2828    0.1891    0.1960    0.0191
 #Energy    1134.55114086258     
