          12
 
C    17.4794   17.9113   15.3195   -0.0030    0.0197   -0.0002
C    17.8186   19.2825   15.3560    0.0011    0.0071    0.0001
C    19.1706   19.6725   15.4856   -0.0254    0.0052   -0.0024
C    20.1831   18.6912   15.5788    0.0025   -0.0196    0.0002
C    19.8437   17.3199   15.5424   -0.0018   -0.0071   -0.0002
C    18.4918   16.9300   15.4128    0.0264   -0.0053    0.0025
H    20.6378   16.5505   15.6155   -0.0479   -0.0542   -0.0049
H    18.2255   15.8548   15.3843    0.2718   -0.0668    0.0257
H    19.4369   20.7477   15.5141   -0.2613    0.0644   -0.0246
H    21.2433   18.9970   15.6804    0.0545   -0.1997    0.0047
H    16.4192   17.6054   15.2178   -0.0569    0.2068   -0.0050
H    17.0246   20.0519   15.2828    0.0418    0.0488    0.0043
 #Energy    1136.87456095008     
