          12
 
C    17.4794   17.9113   15.3195   -0.0081    0.0274   -0.0007
C    17.8186   19.2825   15.3560    0.0201    0.0211    0.0020
C    19.1706   19.6725   15.4856    0.0275   -0.0071    0.0026
C    20.1831   18.6912   15.5788    0.0079   -0.0274    0.0007
C    19.8437   17.3199   15.5424   -0.0199   -0.0206   -0.0020
C    18.4918   16.9300   15.4128   -0.0273    0.0066   -0.0026
H    20.6378   16.5505   15.6155    0.1305    0.1360    0.0130
H    18.2255   15.8548   15.3843    0.1871   -0.0469    0.0176
H    19.4369   20.7477   15.5141   -0.1868    0.0464   -0.0176
H    21.2433   18.9970   15.6804   -0.0525    0.1837   -0.0046
H    16.4192   17.6054   15.2178    0.0522   -0.1840    0.0045
H    17.0246   20.0519   15.2828   -0.1302   -0.1353   -0.0130
 #Energy    1296.77133756118     
