          12
 
C    17.4794   17.9113   15.3195   -0.0168    0.0589   -0.0014
C    17.8186   19.2825   15.3560   -0.0424   -0.0445   -0.0042
C    19.1706   19.6725   15.4856    0.0591   -0.0146    0.0056
C    20.1831   18.6912   15.5788   -0.0167    0.0589   -0.0014
C    19.8437   17.3199   15.5424   -0.0427   -0.0445   -0.0042
C    18.4918   16.9300   15.4128    0.0592   -0.0145    0.0056
H    20.6378   16.5505   15.6155    0.0266    0.0277    0.0027
H    18.2255   15.8548   15.3843   -0.0360    0.0094   -0.0034
H    19.4369   20.7477   15.5141   -0.0354    0.0090   -0.0034
H    21.2433   18.9970   15.6804    0.0103   -0.0355    0.0009
H    16.4192   17.6054   15.2178    0.0103   -0.0355    0.0009
H    17.0246   20.0519   15.2828    0.0261    0.0268    0.0026
 #Energy    1384.72792173706     
