          12
 
C    17.4794   17.9113   15.3195    0.0387   -0.0250    0.0036
C    17.8186   19.2825   15.3560   -0.0424   -0.0376   -0.0042
C    19.1706   19.6725   15.4856   -0.0135    0.0393   -0.0011
C    20.1831   18.6912   15.5788    0.0386   -0.0248    0.0036
C    19.8437   17.3199   15.5424   -0.0424   -0.0377   -0.0041
C    18.4918   16.9300   15.4128   -0.0138    0.0394   -0.0012
H    20.6378   16.5505   15.6155    0.1227    0.1356    0.0122
H    18.2255   15.8548   15.3843    0.0816    0.0239    0.0078
H    19.4369   20.7477   15.5141    0.0808    0.0241    0.0078
H    21.2433   18.9970   15.6804    0.0052    0.1174    0.0009
H    16.4192   17.6054   15.2178    0.0053    0.1173    0.0009
H    17.0246   20.0519   15.2828    0.1212    0.1343    0.0121
 #Energy    1456.97701783571     
