          12
 
C    17.4794   17.9113   15.3195    0.0091    0.0502    0.0010
C    17.8186   19.2825   15.3560    0.0224   -0.0309    0.0020
C    19.1706   19.6725   15.4856   -0.0545   -0.0017   -0.0052
C    20.1831   18.6912   15.5788    0.0090    0.0504    0.0010
C    19.8437   17.3199   15.5424    0.0222   -0.0311    0.0020
C    18.4918   16.9300   15.4128   -0.0545   -0.0017   -0.0052
H    20.6378   16.5505   15.6155    0.0483   -0.0165    0.0046
H    18.2255   15.8548   15.3843    0.1611   -0.0591    0.0152
H    19.4369   20.7477   15.5141    0.1599   -0.0589    0.0150
H    21.2433   18.9970   15.6804    0.0673   -0.1343    0.0061
H    16.4192   17.6054   15.2178    0.0672   -0.1341    0.0060
H    17.0246   20.0519   15.2828    0.0481   -0.0167    0.0046
 #Energy    1457.99988341952     
