          12
 
C    17.4794   17.9113   15.3195   -0.0189   -0.0420   -0.0019
C    17.8186   19.2825   15.3560    0.0546    0.0544    0.0054
C    19.1706   19.6725   15.4856   -0.0476   -0.0170   -0.0046
C    20.1831   18.6912   15.5788    0.0189    0.0418    0.0019
C    19.8437   17.3199   15.5424   -0.0546   -0.0542   -0.0053
C    18.4918   16.9300   15.4128    0.0475    0.0170    0.0046
H    20.6378   16.5505   15.6155    0.0541    0.0594    0.0054
H    18.2255   15.8548   15.3843   -0.0355    0.0424   -0.0033
H    19.4369   20.7477   15.5141    0.0351   -0.0423    0.0032
H    21.2433   18.9970   15.6804    0.0431   -0.0257    0.0041
H    16.4192   17.6054   15.2178   -0.0432    0.0260   -0.0041
H    17.0246   20.0519   15.2828   -0.0540   -0.0591   -0.0054
 #Energy    1618.38891761833     
