          12
 
C    17.4794   17.9113   15.3195    0.0334   -0.0620    0.0030
C    17.8186   19.2825   15.3560   -0.0210    0.0263   -0.0019
C    19.1706   19.6725   15.4856    0.0583   -0.0335    0.0054
C    20.1831   18.6912   15.5788   -0.0336    0.0621   -0.0030
C    19.8437   17.3199   15.5424    0.0211   -0.0261    0.0019
C    18.4918   16.9300   15.4128   -0.0580    0.0332   -0.0054
H    20.6378   16.5505   15.6155    0.0305   -0.0240    0.0028
H    18.2255   15.8548   15.3843    0.0708    0.0040    0.0067
H    19.4369   20.7477   15.5141   -0.0712   -0.0041   -0.0068
H    21.2433   18.9970   15.6804    0.0029   -0.0746    0.0001
H    16.4192   17.6054   15.2178   -0.0030    0.0742   -0.0001
H    17.0246   20.0519   15.2828   -0.0310    0.0237   -0.0029
 #Energy    1618.73323532415     
