          12
 
C    17.4794   17.9113   15.3195   -0.0161   -0.0045   -0.0015
C    17.8186   19.2825   15.3560    0.0132   -0.0128    0.0012
C    19.1706   19.6725   15.4856    0.0039    0.0163    0.0004
C    20.1831   18.6912   15.5788   -0.0161   -0.0045   -0.0015
C    19.8437   17.3199   15.5424    0.0135   -0.0130    0.0012
C    18.4918   16.9300   15.4128    0.0038    0.0156    0.0004
H    20.6378   16.5505   15.6155   -0.1596    0.1547   -0.0147
H    18.2255   15.8548   15.3843   -0.0462   -0.1872   -0.0049
H    19.4369   20.7477   15.5141   -0.0482   -0.1950   -0.0052
H    21.2433   18.9970   15.6804    0.1927    0.0555    0.0185
H    16.4192   17.6054   15.2178    0.1921    0.0552    0.0184
H    17.0246   20.0519   15.2828   -0.1576    0.1527   -0.0146
 #Energy    3119.45797861903     
