          12
 
C    17.4794   17.9113   15.3195    0.0131    0.0026    0.0012
C    17.8186   19.2825   15.3560   -0.0184    0.0177   -0.0017
C    19.1706   19.6725   15.4856   -0.0013   -0.0101   -0.0001
C    20.1831   18.6912   15.5788   -0.0127   -0.0025   -0.0012
C    19.8437   17.3199   15.5424    0.0190   -0.0183    0.0017
C    18.4918   16.9300   15.4128    0.0011    0.0095    0.0001
H    20.6378   16.5505   15.6155   -0.2192    0.2124   -0.0202
H    18.2255   15.8548   15.3843   -0.0260   -0.1086   -0.0028
H    19.4369   20.7477   15.5141    0.0277    0.1148    0.0030
H    21.2433   18.9970   15.6804    0.1453    0.0412    0.0140
H    16.4192   17.6054   15.2178   -0.1496   -0.0424   -0.0144
H    17.0246   20.0519   15.2828    0.2124   -0.2057    0.0196
 #Energy    3127.93152151487     
