          12
 
C    17.4794   17.9113   15.3195    0.0204    0.0066    0.0019
C    17.8186   19.2825   15.3560    0.0004   -0.0023    0.0000
C    19.1706   19.6725   15.4856    0.0060    0.0219    0.0006
C    20.1831   18.6912   15.5788   -0.0193   -0.0064   -0.0019
C    19.8437   17.3199   15.5424   -0.0009    0.0027   -0.0001
C    18.4918   16.9300   15.4128   -0.0058   -0.0211   -0.0006
H    20.6378   16.5505   15.6155    0.0203   -0.0208    0.0019
H    18.2255   15.8548   15.3843    0.0616    0.2476    0.0066
H    19.4369   20.7477   15.5141   -0.0639   -0.2564   -0.0069
H    21.2433   18.9970   15.6804    0.2275    0.0662    0.0219
H    16.4192   17.6054   15.2178   -0.2387   -0.0692   -0.0229
H    17.0246   20.0519   15.2828   -0.0148    0.0156   -0.0014
 #Energy    3129.64538373945     
