          12
 
C    17.4794   17.9113   15.3195   -0.0150   -0.0060   -0.0014
C    17.8186   19.2825   15.3560   -0.0183    0.0180   -0.0017
C    19.1706   19.6725   15.4856    0.0046    0.0107    0.0005
C    20.1831   18.6912   15.5788   -0.0150   -0.0060   -0.0014
C    19.8437   17.3199   15.5424   -0.0175    0.0172   -0.0016
C    18.4918   16.9300   15.4128    0.0046    0.0110    0.0005
H    20.6378   16.5505   15.6155    0.1946   -0.1889    0.0180
H    18.2255   15.8548   15.3843   -0.0332   -0.1274   -0.0035
H    19.4369   20.7477   15.5141   -0.0324   -0.1237   -0.0035
H    21.2433   18.9970   15.6804    0.1716    0.0511    0.0165
H    16.4192   17.6054   15.2178    0.1713    0.0509    0.0164
H    17.0246   20.0519   15.2828    0.2038   -0.1977    0.0188
 #Energy    3141.31016805243     
