          12
 
C    17.4794   17.9113   15.3195   -0.0199   -0.0045   -0.0019
C    17.8186   19.2825   15.3560    0.0033   -0.0005    0.0003
C    19.1706   19.6725   15.4856   -0.0049   -0.0234   -0.0005
C    20.1831   18.6912   15.5788   -0.0211   -0.0049   -0.0020
C    19.8437   17.3199   15.5424    0.0028    0.0001    0.0003
C    18.4918   16.9300   15.4128   -0.0051   -0.0238   -0.0006
H    20.6378   16.5505   15.6155   -0.0167    0.0136   -0.0016
H    18.2255   15.8548   15.3843    0.0641    0.2624    0.0069
H    19.4369   20.7477   15.5141    0.0627    0.2566    0.0068
H    21.2433   18.9970   15.6804    0.2305    0.0654    0.0222
H    16.4192   17.6054   15.2178    0.2163    0.0612    0.0208
H    17.0246   20.0519   15.2828   -0.0228    0.0195   -0.0021
 #Energy    3142.90636626513     
