          12
 
C    17.4794   17.9113   15.3195    0.0186    0.0053    0.0018
C    17.8186   19.2825   15.3560    0.0126   -0.0122    0.0012
C    19.1706   19.6725   15.4856   -0.0046   -0.0188   -0.0005
C    20.1831   18.6912   15.5788   -0.0185   -0.0053   -0.0018
C    19.8437   17.3199   15.5424   -0.0127    0.0122   -0.0012
C    18.4918   16.9300   15.4128    0.0049    0.0198    0.0005
H    20.6378   16.5505   15.6155    0.1355   -0.1313    0.0125
H    18.2255   15.8548   15.3843   -0.0531   -0.2148   -0.0057
H    19.4369   20.7477   15.5141    0.0502    0.2030    0.0054
H    21.2433   18.9970   15.6804    0.2001    0.0578    0.0192
H    16.4192   17.6054   15.2178   -0.2009   -0.0578   -0.0193
H    17.0246   20.0519   15.2828   -0.1352    0.1311   -0.0125
 #Energy    3149.34544675294     
