          12
 
C    17.4794   17.9113   15.3195   -0.0070   -0.0002    0.0740
C    17.8186   19.2825   15.3560    0.0029    0.0002   -0.0327
C    19.1706   19.6725   15.4856    0.0037    0.0003   -0.0414
C    20.1831   18.6912   15.5788   -0.0074   -0.0003    0.0736
C    19.8437   17.3199   15.5424    0.0029   -0.0000   -0.0329
C    18.4918   16.9300   15.4128    0.0037   -0.0001   -0.0411
H    20.6378   16.5505   15.6155    0.0068    0.0002   -0.0721
H    18.2255   15.8548   15.3843    0.0082    0.0001   -0.0902
H    19.4369   20.7477   15.5141    0.0085    0.0004   -0.0908
H    21.2433   18.9970   15.6804   -0.0159   -0.0006    0.1623
H    16.4192   17.6054   15.2178   -0.0154   -0.0005    0.1623
H    17.0246   20.0519   15.2828    0.0065    0.0001   -0.0718
 #Energy    388.283318291475     
