          12
 
C    17.4794   17.9113   15.3195    0.0301    0.0379    0.0030
C    17.8186   19.2825   15.3560   -0.0552    0.0541   -0.0052
C    19.1706   19.6725   15.4856   -0.0363   -0.0298   -0.0036
C    20.1831   18.6912   15.5788   -0.0302   -0.0376   -0.0032
C    19.8437   17.3199   15.5424    0.0553   -0.0540    0.0054
C    18.4918   16.9300   15.4128    0.0364    0.0302    0.0034
H    20.6378   16.5505   15.6155    0.0560   -0.0532    0.0056
H    18.2255   15.8548   15.3843   -0.0331    0.0475   -0.0032
H    19.4369   20.7477   15.5141    0.0336   -0.0473    0.0031
H    21.2433   18.9970   15.6804   -0.0498    0.0310   -0.0046
H    16.4192   17.6054   15.2178    0.0496   -0.0305    0.0044
H    17.0246   20.0519   15.2828   -0.0558    0.0534   -0.0048
 #Energy    585.921304389925     
